c ---- [ banner ] ------------------------------------------------------------
c
c Kissat SAT Solver
c 
c Copyright (c) 2021-2024 Armin Biere University of Freiburg
c Copyright (c) 2019-2021 Armin Biere Johannes Kepler University Linz
c 
c Version 4.0.1 43f02cf3e992cb44653b35e5cb26f93281552ae0
c gcc (Ubuntu 13.2.0-23ubuntu4) 13.2.0 -W -Wall -O3 -DNDEBUG
c Thu Sep 12 12:27:46 CEST 2024 Linux abryzen9 6.8.0-41-generic x86_64
c
c ---- [ parsing ] -----------------------------------------------------------
c
c opened and reading DIMACS file:
c
c   /data/artifact/AMulet2.0_artifact/exp4/cnf_compress2rs_64/64_64_U_SP_CWT_CK_GenMul_compress2rs.cnf
c
c parsed 'p cnf 39249 152356' header
c closing input after reading 2978334 bytes (3 MB)
c finished parsing after 0.03 seconds
c
c ---- [ options ] -----------------------------------------------------------
c
c --stable=0                       (different from default '1')
c
c ---- [ solving ] -----------------------------------------------------------
c
c  seconds switched rate     size/glue tier1  binary           remaining
c         MB reductions conflicts size  tier2     irredundant
c          level restarts redundant glue  trail           variables
c
c *  0.03 12 0 0 0  0 0   0   0 0.0 0 0 0 0 0% 39180 113174 39246 100%
c (  0.05 13 0 0 0  0 0   0   0 0.0 0 0 0 0 0% 39180 113174 39246 100%
c .  0.06 13 0 0 0  0 0   0   0 0.0 0 0 0 0 0% 39176 113174 39246 100%
c c  0.18 24 0 0 0  0 0   0   0 0.0 0 0 0 0 0% 48034 97363 34815 89%
c d  0.19 24 0 0 0  0 0   0   0 0.0 0 0 0 0 0% 39172 97363 34815 89%
c =  0.26 24 0 0 0  0 0   0   0 0.0 0 0 0 0 0% 38114 97363 34709 88%
c d  0.27 24 0 0 0  0 0   0   0 0.0 0 0 0 0 0% 37902 97363 34709 88%
c f  0.38 22 0 0 0  0 0   0   0 0.0 0 0 0 0 0% 39429 94803 35715 91%
c e  0.49 30 0 0 0  0 0   0   0 0.0 0 0 0 0 0% 23211 103302 26882 68%
c )  0.49 30 0 0 0  0 0   0   0 0.0 0 0 0 0 0% 23211 103302 26882 68%
c {  0.50 30 0 0 0  0 0   0   0 0.0 0 0 2 6 0% 23211 103302 26882 68%
c i  0.53 30 114 0 0 98 18 575 461 1.9 7 4 3 7 13% 23249 103300 26880 68%
c -  0.64 32 112 0 1 182 22 1000 765 3.1 19 6 3 8 18% 23270 103292 26880 68%
c -  0.78 32 156 0 2 248 22 2003 1497 2.9 17 6 3 9 24% 23322 103291 26880 68%
c c  0.89 25 160 0 2 290 21 2506 1921 2.9 17 6 3 9 24% 23342 103279 26876 68%
c d  0.90 25 160 0 2 290 21 2506 1917 2.9 17 6 3 9 24% 23334 103279 26876 68%
c b  0.90 25 160 0 2 290 21 2506 1917 2.9 17 6 3 9 24% 23334 103279 26875 68%
c u  0.91 25 160 0 2 290 21 2506 1460 2.9 17 6 3 9 24% 23342 103279 26875 68%
c v  0.92 25 160 0 2 290 21 2506 1379 2.9 17 6 3 9 24% 23342 103279 26875 68%
c w  0.93 25 160 0 2 290 21 2506 1379 2.9 17 6 3 9 24% 23342 103279 26875 68%
c
c  seconds   switched   rate       size/glue tier1    binary           remaining
c         MB  reductions conflicts       size  tier2      irredundant
c           level restarts    redundant    glue   trail           variables
c
c x  0.95 25 160 0 2 290 21 2506 1379 2.9 17 6 3 9 24% 23453 103013 26875 68%
c =  0.99 27 160 0 2 290 21 2506 1379 2.9 17 6 3 9 24% 23465 103013 26869 68%
c d  1.00 27 160 0 2 290 21 2506 1378 2.9 17 6 3 9 24% 23451 103013 26868 68%
c b  1.01 27 160 0 2 290 21 2506 1378 2.9 17 6 3 9 24% 23451 103013 26865 68%
c f  1.03 27 160 0 2 290 21 2506 1378 2.9 17 6 3 9 24% 24109 101830 27339 70%
c u  1.05 27 160 0 2 290 21 2506 1309 2.9 17 6 3 9 24% 24113 101823 27339 70%
c v  1.07 27 160 0 2 290 21 2506 1198 2.9 17 6 3 9 24% 24113 101823 27339 70%
c w  1.08 27 160 0 2 290 21 2506 1198 2.9 17 6 3 9 24% 24113 101823 27339 70%
c x  1.09 27 160 0 2 290 21 2506 1198 2.9 17 6 3 9 24% 24114 101819 27339 70%
c =  1.13 27 160 0 2 290 21 2506 1198 2.9 17 6 3 9 24% 24146 101819 27323 70%
c d  1.14 27 160 0 2 290 21 2506 1197 2.9 17 6 3 9 24% 24101 101819 27323 70%
c f  1.17 27 160 0 2 290 21 2506 1197 2.9 17 6 3 9 24% 24179 101685 27373 70%
c -  1.25 27 246 0 3 310 20 3417 1722 2.8 15 5 3 9 24% 24214 101685 27373 70%
c -  1.54 27 282 0 4 479 25 5151 2922 3.1 16 5 3 9 26% 24293 101685 27373 70%
c -  1.69 27 298 0 5 597 24 7152 4214 2.9 14 5 3 8 24% 24432 101666 27373 70%
c c  1.92 29 288 0 5 699 25 7716 4728 2.8 16 6 3 8 25% 24453 101663 27372 70%
c d  1.93 29 288 0 5 699 25 7716 4727 2.8 16 6 3 8 25% 24457 101655 27370 70%
c d  1.93 29 288 0 5 699 25 7716 4727 2.8 16 6 3 8 25% 24459 101653 27369 70%
c b  1.94 29 288 0 5 699 25 7716 4727 2.8 16 6 3 8 25% 24459 101653 27367 70%
c u  1.96 29 288 0 5 699 25 7716 3562 2.8 16 6 3 8 25% 24469 101653 27367 70%
c
c  seconds   switched   rate       size/glue tier1    binary           remaining
c         MB  reductions conflicts       size  tier2      irredundant
c           level restarts    redundant    glue   trail           variables
c
c v  1.98 29 288 0 5 699 25 7716 3282 2.8 16 6 3 8 25% 24469 101653 27367 70%
c w  2.02 29 288 0 5 699 25 7716 3278 2.8 16 6 3 8 25% 24469 101653 27367 70%
c =  2.10 29 288 0 5 699 25 7716 3278 2.8 16 6 3 8 25% 24739 101651 27227 69%
c d  2.11 29 288 0 5 699 25 7716 3274 2.8 16 6 3 8 25% 24392 101636 27227 69%
c t  2.12 29 288 0 5 699 25 7716 3274 2.8 16 6 3 8 25% 24386 101636 27227 69%
c f  2.15 29 288 0 5 699 25 7716 3274 2.8 16 6 3 8 25% 25522 99891 27835 71%
c u  2.19 29 288 0 5 699 25 7716 3070 2.8 16 6 3 8 25% 25523 99891 27835 71%
c v  2.21 29 288 0 5 699 25 7716 3005 2.8 16 6 3 8 25% 25523 99891 27835 71%
c w  2.24 29 288 0 5 699 25 7716 3003 2.8 16 6 3 8 25% 25523 99891 27835 71%
c x  2.25 29 288 0 5 699 25 7716 3003 2.8 16 6 3 8 25% 25543 99688 27835 71%
c =  2.36 29 288 0 5 699 25 7716 3003 2.8 16 6 3 8 25% 25859 99685 27673 71%
c d  2.36 29 288 0 5 699 25 7716 2992 2.8 16 6 3 8 25% 25513 99679 27673 71%
c t  2.38 29 288 0 5 699 25 7716 2992 2.8 16 6 3 8 25% 25510 99679 27673 71%
c f  2.42 29 288 0 5 699 25 7716 2992 2.8 16 6 3 8 25% 25608 99531 27720 71%
c i  2.65 29 287 0 5 826 25 9088 4179 2.8 16 6 3 8 26% 25669 99526 27719 71%
c -  2.66 29 299 0 6 826 25 9388 3744 2.8 16 6 2 8 26% 25646 99521 27719 71%
c o  2.74 29 285 0 6 874 24 10000 4313 2.8 16 6 2 8 26% 25662 99521 27719 71%
c -  2.99 29 295 0 7 1021 24 11837 5230 2.8 16 6 2 8 26% 25744 99516 27719 71%
c s  3.15 29 286 0 7 1066 24 12523 5840 2.8 16 6 2 8 27% 25772 98574 27719 71%
c e  3.24 29 286 0 7 1066 24 12523 5840 2.8 16 6 2 8 27% 23776 100375 26672 68%
c
c  seconds   switched    rate        size/glue tier1    binary          remaining
c         MB  reductions   conflicts       size  tier2      irredundant
c           level  restarts     redundant    glue   trail          variables
c
c s  3.25 29 286 0 7 1066 24 12523 5840 2.8 16 6 2 8 27% 23786 99579 26672 68%
c e  3.26 29 286 0 7 1066 24 12523 5840 2.8 16 6 2 8 27% 23088 100051 26444 67%
c ^  3.26 29 286 0 7 1066 24 12523 5840 2.8 16 6 2 8 27% 23088 100051 26444 67%
c -  3.45 29 310 0 8 1163 24 14483 6216 2.8 16 6 2 8 27% 23186 100040 26444 67%
c d  3.60 29 304 0 8 1246 24 15805 7407 2.8 15 5 2 8 27% 23165 100038 26410 67%
c u  3.63 29 304 0 8 1246 24 15805 6118 2.8 15 5 2 8 27% 23181 100038 26410 67%
c v  3.67 29 304 0 8 1246 24 15805 5395 2.8 15 5 2 8 27% 23182 100038 26410 67%
c w  3.69 29 304 0 8 1246 24 15805 5395 2.8 15 5 2 8 27% 23182 100038 26410 67%
c x  3.72 29 304 0 8 1246 24 15805 5395 2.8 15 5 2 8 27% 23188 99047 26410 67%
c =  3.85 29 304 0 8 1246 24 15805 5395 2.8 15 5 2 8 27% 24118 99047 25945 66%
c d  3.86 29 304 0 8 1246 24 15805 5341 2.8 15 5 2 8 27% 22938 99047 25945 66%
c t  3.88 29 304 0 8 1246 24 15805 5341 2.8 15 5 2 8 27% 22933 99047 25945 66%
c f  3.93 29 304 0 8 1246 24 15805 5341 2.8 15 5 2 8 27% 22966 98941 25977 66%
c u  4.01 29 304 0 8 1246 24 15805 5074 2.8 15 5 2 8 27% 22974 98941 25977 66%
c v  4.04 29 304 0 8 1246 24 15805 4795 2.8 15 5 2 8 27% 22974 98941 25977 66%
c w  4.07 29 304 0 8 1246 24 15805 4787 2.8 15 5 2 8 27% 22974 98941 25977 66%
c x  4.10 29 304 0 8 1246 24 15805 4783 2.8 15 5 2 8 27% 23011 97642 25977 66%
c =  4.23 29 304 0 8 1246 24 15805 4783 2.8 15 5 2 8 27% 23665 97638 25650 65%
c d  4.24 29 304 0 8 1246 24 15805 4762 2.8 15 5 2 8 27% 22827 97638 25650 65%
c t  4.26 29 304 0 8 1246 24 15805 4762 2.8 15 5 2 8 27% 22823 97638 25650 65%
c
c  seconds   switched    rate        size/glue tier1    binary          remaining
c         MB  reductions   conflicts       size  tier2      irredundant
c           level  restarts     redundant    glue   trail          variables
c
c f  4.27 29 304 0 8 1246 24 15805 4762 2.8 15 5 2 8 27% 22824 97609 25659 65%
c -  4.63 29 296 0 9 1434 24 17313 5301 2.9 16 6 2 7 28% 22870 97606 25659 65%
c o  5.23 29 290 0 9 1716 25 20033 7790 3.1 18 6 2 7 28% 22945 97604 25659 65%
c -  5.34 29 288 0 10 1768 26 20313 7093 3.1 18 6 2 7 28% 22952 97604 25659 65%
c -  5.82 29 275 0 11 2004 25 23475 8784 3.2 18 6 2 7 28% 23036 97601 25659 65%
c s  6.04 29 269 0 11 2102 25 25041 10175 3.1 18 6 2 7 28% 23081 97001 25659 65%
c e  6.15 29 269 0 11 2102 25 25041 10175 3.1 18 6 2 7 28% 19452 103170 22536 57%
c 2  6.15 29 269 0 11 2102 25 25041 10175 3.1 18 6 2 7 28% 19450 103170 22536 57%
c s  6.18 29 269 0 11 2102 25 25041 10175 3.1 18 6 2 7 28% 19791 101216 22536 57%
c e  6.20 29 269 0 11 2102 25 25041 10175 3.1 18 6 2 7 28% 19681 101390 22464 57%
c ^  6.20 29 269 0 11 2102 25 25041 10175 3.1 18 6 2 7 28% 19681 101390 22464 57%
c -  6.39 29 276 0 12 2178 25 26793 8061 3.1 18 6 2 7 28% 19720 101389 22464 57%
c d  6.42 29 277 0 12 2191 25 26945 8195 3.1 18 6 2 7 28% 19695 101389 22446 57%
c u  6.45 29 277 0 12 2191 25 26945 6926 3.1 18 6 2 7 28% 19710 101389 22446 57%
c v  6.49 29 277 0 12 2191 25 26945 6047 3.1 18 6 2 7 28% 19711 101389 22446 57%
c w  6.50 29 277 0 12 2191 25 26945 6044 3.1 18 6 2 7 28% 19711 101389 22446 57%
c x  6.56 29 277 0 12 2191 25 26945 6014 3.1 18 6 2 7 28% 19752 99701 22446 57%
c =  6.78 29 277 0 12 2191 25 26945 6014 3.1 18 6 2 7 28% 21052 99698 21796 56%
c d  6.79 29 277 0 12 2191 25 26945 5945 3.1 18 6 2 7 28% 19636 99698 21796 56%
c t  6.80 29 277 0 12 2191 25 26945 5945 3.1 18 6 2 7 28% 19581 99698 21796 56%
c
c  seconds   switched     rate        size/glue tier1    binary          remaining
c         MB   reductions   conflicts       size  tier2      irredundant
c           level   restarts     redundant    glue   trail          variables
c
c f  6.89 29 277 0 12 2191 25 26945 5945 3.1 18 6 2 7 28% 19807 98766 21995 56%
c u  6.93 29 277 0 12 2191 25 26945 5677 3.1 18 6 2 7 28% 19810 98766 21995 56%
c v  6.95 29 277 0 12 2191 25 26945 5478 3.1 18 6 2 7 28% 19810 98766 21995 56%
c w  6.96 29 277 0 12 2191 25 26945 5475 3.1 18 6 2 7 28% 19810 98766 21995 56%
c x  7.06 29 277 0 12 2191 25 26945 5469 3.1 18 6 2 7 28% 19844 94551 21995 56%
c =  7.29 29 277 0 12 2191 25 26945 5469 3.1 18 6 2 7 28% 22690 94551 20572 52%
c d  7.30 29 277 0 12 2191 25 26945 5404 3.1 18 6 2 7 28% 19809 94551 20572 52%
c t  7.31 29 277 0 12 2191 25 26945 5404 3.1 18 6 2 7 28% 19728 94551 20572 52%
c f  7.37 29 277 0 12 2191 25 26945 5404 3.1 18 6 2 7 28% 19841 93780 20705 53%
c -  7.85 29 269 0 13 2436 25 30257 7471 3.1 18 6 2 7 29% 19904 93778 20705 53%
c -  8.16 29 264 0 14 2600 24 33862 9641 3.0 17 6 2 6 28% 20009 93775 20705 53%
c -  8.66 29 256 0 15 2853 24 37605 11414 3.0 17 6 2 6 28% 20080 93771 20705 53%
c o  8.92 29 252 0 15 3001 24 40341 13742 3.0 16 6 2 6 28% 20134 93769 20705 53%
c d  9.09 29 252 0 15 3109 24 41279 14532 3.0 17 6 2 6 28% 20114 93769 20681 53%
c u  9.14 29 252 0 15 3109 24 41279 12385 3.0 17 6 2 6 28% 20133 93769 20681 53%
c v  9.18 29 252 0 15 3109 24 41279 11654 3.0 17 6 2 6 28% 20133 93769 20681 53%
c w  9.22 29 252 0 15 3109 24 41279 11654 3.0 17 6 2 6 28% 20133 93769 20681 53%
c x  9.28 29 252 0 15 3109 24 41279 11650 3.0 17 6 2 6 28% 20134 89623 20681 53%
c =  9.45 29 252 0 15 3109 24 41279 11650 3.0 17 6 2 6 28% 20350 89623 20573 52%
c d  9.46 29 252 0 15 3109 24 41279 11601 3.0 17 6 2 6 28% 20119 89623 20573 52%
c
c  seconds   switched     rate         size/glue tier1    binary          remaining
c         MB   reductions   conflicts        size  tier2      irredundant
c           level   restarts      redundant    glue   trail          variables
c
c t  9.48 29 252 0 15 3109 24 41279 11601 3.0 17 6 2 6 28% 20097 89623 20573 52%
c f  9.50 29 252 0 15 3109 24 41279 11601 3.0 17 6 2 6 28% 20110 89541 20588 52%
c c  9.56 29 252 0 15 3109 24 41279 11601 3.0 17 6 2 6 28% 20123 89540 20587 52%
c d  9.56 29 252 0 15 3109 24 41279 11601 3.0 17 6 2 6 28% 20121 89540 20587 52%
c u  9.61 29 252 0 15 3109 24 41279 11150 3.0 17 6 2 6 28% 20121 89540 20587 52%
c v  9.66 29 252 0 15 3109 24 41279 10171 3.0 17 6 2 6 28% 20122 89540 20587 52%
c w  9.70 29 252 0 15 3109 24 41279 10167 3.0 17 6 2 6 28% 20122 89540 20587 52%
c x  9.75 29 252 0 15 3109 24 41279 10165 3.0 17 6 2 6 28% 20125 87589 20587 52%
c =  9.93 29 252 0 15 3109 24 41279 10165 3.0 17 6 2 6 28% 20365 87589 20467 52%
c d  9.94 29 252 0 15 3109 24 41279 10147 3.0 17 6 2 6 28% 20044 87589 20467 52%
c t  9.95 29 252 0 15 3109 24 41279 10147 3.0 17 6 2 6 28% 20040 87589 20467 52%
c f  9.97 29 252 0 15 3109 24 41279 10147 3.0 17 6 2 6 28% 20037 87568 20470 52%
c - 10.02 29 251 0 16 3130 24 41477 9105 3.0 17 6 2 6 28% 20043 87568 20470 52%
c - 10.76 29 244 0 17 3604 25 45477 11311 3.1 18 6 2 6 28% 20124 87566 20470 52%
c - 11.16 29 239 0 18 3800 24 49600 13615 3.0 17 6 2 6 28% 20199 87562 20470 52%
c s 11.48 29 238 0 18 3999 24 52174 15934 3.0 17 6 2 6 28% 20259 85555 20470 52%
c e 11.59 29 238 0 18 3999 24 52174 15934 3.0 17 6 2 6 28% 15117 93966 17893 46%
c 2 11.60 29 238 0 18 3999 24 52174 15934 3.0 17 6 2 6 28% 15111 93966 17893 46%
c s 11.62 29 238 0 18 3999 24 52174 15934 3.0 17 6 2 6 28% 15288 92437 17893 46%
c e 11.64 29 238 0 18 3999 24 52174 15934 3.0 17 6 2 6 28% 14685 93263 17681 45%
c
c  seconds   switched     rate         size/glue tier1    binary          remaining
c         MB   reductions   conflicts        size  tier2      irredundant
c           level   restarts      redundant    glue   trail          variables
c
c ^ 11.64 29 238 0 18 3999 24 52174 15934 3.0 17 6 2 6 28% 14685 93263 17681 45%
c - 12.06 30 234 0 19 4225 24 53842 12081 3.0 17 6 2 6 28% 14695 93263 17681 45%
c - 12.64 30 226 0 20 4635 23 58200 14284 2.9 17 6 2 6 28% 14752 93262 17681 45%
c d 12.77 30 227 0 20 4709 24 58908 14905 2.9 17 6 2 6 28% 14751 93262 17678 45%
c u 12.84 30 227 0 20 4709 24 58908 12427 2.9 17 6 2 6 28% 14765 93262 17677 45%
c v 12.90 30 227 0 20 4709 24 58908 10739 2.9 17 6 2 6 28% 14767 93262 17677 45%
c w 12.93 30 227 0 20 4709 24 58908 10723 2.9 17 6 2 6 28% 14767 93262 17677 45%
c x 13.00 30 227 0 20 4709 24 58908 10713 2.9 17 6 2 6 28% 14799 91696 17677 45%
c = 13.26 30 227 0 20 4709 24 58908 10713 2.9 17 6 2 6 28% 15071 91696 17541 45%
c d 13.27 30 227 0 20 4709 24 58908 10662 2.9 17 6 2 6 28% 14786 91696 17541 45%
c t 13.28 30 227 0 20 4709 24 58908 10662 2.9 17 6 2 6 28% 14709 91696 17541 45%
c f 13.38 30 227 0 20 4709 24 58908 10662 2.9 17 6 2 6 28% 15117 90421 17707 45%
c u 13.43 30 227 0 20 4709 24 58908 10154 2.9 17 6 2 6 28% 15120 90421 17707 45%
c v 13.47 30 227 0 20 4709 24 58908 9838 2.9 17 6 2 6 28% 15121 90421 17707 45%
c w 13.50 30 227 0 20 4709 24 58908 9821 2.9 17 6 2 6 28% 15121 90421 17707 45%
c x 13.61 30 227 0 20 4709 24 58908 9806 2.9 17 6 2 6 28% 15175 87565 17707 45%
c = 13.89 30 227 0 20 4709 24 58908 9806 2.9 17 6 2 6 28% 16181 87565 17204 44%
c d 13.90 30 227 0 20 4709 24 58908 9615 2.9 17 6 2 6 28% 15139 87565 17204 44%
c t 13.91 30 227 0 20 4709 24 58908 9615 2.9 17 6 2 6 28% 15069 87565 17204 44%
c f 13.95 30 227 0 20 4709 24 58908 9615 2.9 17 6 2 6 28% 15133 87302 17240 44%
c
c  seconds   switched     rate        size/glue tier1    binary          remaining
c         MB   reductions   conflicts       size  tier2      irredundant
c           level   restarts     redundant    glue   trail          variables
c
c i 13.95 30 227 0 20 4709 24 58908 9615 2.9 17 6 2 6 28% 15133 87302 17240 44%
c - 14.64 30 219 0 21 5155 24 62673 11703 2.9 17 6 2 6 29% 15160 87302 17240 44%
c - 15.22 30 211 0 22 5502 23 67255 14227 2.8 16 6 2 6 28% 15208 87300 17240 44%
c o 15.62 30 209 0 22 5752 23 70370 16956 2.8 16 6 2 6 28% 15246 87298 17240 44%
c - 15.86 30 208 0 23 5920 23 71945 16152 2.8 16 6 2 6 28% 15260 87296 17240 44%
c - 16.83 30 203 0 24 6347 23 76740 17938 2.7 16 6 2 6 28% 15312 87295 17240 44%
c d 17.87 31 199 0 24 6771 23 79959 20757 2.7 16 6 2 6 28% 15305 87293 17223 44%
c u 18.01 31 199 0 24 6771 23 79959 17590 2.7 16 6 2 6 28% 15335 87293 17223 44%
c v 18.16 31 199 0 24 6771 23 79959 15320 2.7 16 6 2 6 28% 15342 87293 17223 44%
c w 18.23 31 199 0 24 6771 23 79959 15319 2.7 16 6 2 6 28% 15342 87293 17223 44%
c x 18.37 31 199 0 24 6771 23 79959 15312 2.7 16 6 2 6 28% 15368 84776 17223 44%
c = 18.44 31 199 0 24 6771 23 79959 15312 2.7 16 6 2 6 28% 15396 84776 17209 44%
c d 18.45 31 199 0 24 6771 23 79959 15302 2.7 16 6 2 6 28% 15359 84776 17205 44%
c t 18.48 31 199 0 24 6771 23 79959 15302 2.7 16 6 2 6 28% 15318 84776 17205 44%
c u 18.64 31 199 0 24 6771 23 79959 14520 2.7 16 6 2 6 28% 15319 84776 17205 44%
c v 18.74 31 199 0 24 6771 23 79959 13991 2.7 16 6 2 6 28% 15319 84776 17205 44%
c w 18.90 31 199 0 24 6771 23 79959 13976 2.7 16 6 2 6 28% 15319 84776 17205 44%
c x 19.03 31 199 0 24 6771 23 79959 13971 2.7 16 6 2 6 28% 15340 83823 17205 44%
c = 19.54 31 199 0 24 6771 23 79959 13971 2.7 16 6 2 6 28% 15844 83751 16946 43%
c d 19.55 31 199 0 24 6771 23 79959 13815 2.7 16 6 2 6 28% 15322 83751 16946 43%
c
c  seconds   switched     rate         size/glue tier1    binary          remaining
c         MB   reductions   conflicts        size  tier2      irredundant
c           level   restarts      redundant    glue   trail          variables
c
c t 19.57 31 199 0 24 6771 23 79959 13815 2.7 16 6 2 6 28% 15292 83751 16946 43%
c f 19.60 31 199 0 24 6771 23 79959 13815 2.7 16 6 2 6 28% 15315 83660 16958 43%
c - 19.94 31 197 0 25 6867 23 81638 13677 2.7 16 6 2 6 29% 15334 83656 16958 43%
c - 21.02 31 192 0 26 7244 22 86638 16359 2.7 16 6 2 5 29% 15392 83652 16958 43%
c - 22.01 31 189 0 27 7675 22 91738 18707 2.6 16 6 2 5 28% 15462 83651 16958 43%
c s 22.92 31 185 0 27 8034 22 95832 22323 2.6 16 6 2 5 28% 15504 82163 16958 43%
c e 23.10 31 185 0 27 8034 22 95832 22323 2.6 16 6 2 5 28% 10770 94734 14140 36%
c 2 23.10 31 185 0 27 8034 22 95832 22323 2.6 16 6 2 5 28% 10766 94734 14140 36%
c s 23.15 31 185 0 27 8034 22 95832 22323 2.6 16 6 2 5 28% 10851 92697 14140 36%
c e 23.19 31 185 0 27 8034 22 95832 22323 2.6 16 6 2 5 28% 10678 93041 14065 36%
c ^ 23.19 31 185 0 27 8034 22 95832 22323 2.6 16 6 2 5 28% 10678 93041 14065 36%
c - 23.38 31 185 0 28 8091 22 96935 14161 2.6 15 6 2 5 28% 10690 93040 14065 36%
c - 24.35 31 179 0 29 8596 21 102226 16865 2.6 15 6 2 5 28% 10727 93036 14065 36%
c c 24.86 31 176 0 29 8871 21 104560 19035 2.6 15 6 2 5 28% 10775 92925 14043 36%
c d 24.87 31 176 0 29 8871 21 104560 18959 2.6 15 6 2 5 28% 10731 92925 14043 36%
c u 24.98 31 176 0 29 8871 21 104560 16051 2.6 15 6 2 5 28% 10751 92925 14043 36%
c v 25.07 31 176 0 29 8871 21 104560 14204 2.6 15 6 2 5 28% 10751 92925 14043 36%
c w 25.17 31 176 0 29 8871 21 104560 14128 2.6 15 6 2 5 28% 10751 92925 14043 36%
c x 25.27 31 176 0 29 8871 21 104560 14128 2.6 15 6 2 5 28% 10751 92781 14043 36%
c = 25.73 31 176 0 29 8871 21 104560 14128 2.6 15 6 2 5 28% 11073 92777 13882 35%
c
c  seconds   switched     rate          size/glue tier1    binary          remaining
c         MB   reductions   conflicts         size  tier2      irredundant
c           level   restarts       redundant    glue   trail          variables
c
c d 25.74 31 176 0 29 8871 21 104560 13898 2.6 15 6 2 5 28% 10712 92777 13881 35%
c t 25.75 31 176 0 29 8871 21 104560 13898 2.6 15 6 2 5 28% 10653 92777 13881 35%
c f 25.85 31 176 0 29 8871 21 104560 13898 2.6 15 6 2 5 28% 10635 92530 13906 35%
c u 25.94 31 176 0 29 8871 21 104560 13179 2.6 15 6 2 5 28% 10640 92530 13906 35%
c v 26.01 31 176 0 29 8871 21 104560 12755 2.6 15 6 2 5 28% 10641 92530 13906 35%
c w 26.13 31 176 0 29 8871 21 104560 12511 2.6 15 6 2 5 28% 10641 92530 13906 35%
c x 26.21 31 176 0 29 8871 21 104560 12486 2.6 15 6 2 5 28% 10647 89018 13906 35%
c = 26.55 31 176 0 29 8871 21 104560 12486 2.6 15 6 2 5 28% 10979 88980 13736 35%
c d 26.56 31 176 0 29 8871 21 104560 12354 2.6 15 6 2 5 28% 10641 88980 13736 35%
c t 26.57 31 176 0 29 8871 21 104560 12354 2.6 15 6 2 5 28% 10629 88980 13736 35%
c f 26.61 31 176 0 29 8871 21 104560 12354 2.6 15 6 2 5 28% 10632 88968 13737 35%
c - 27.08 31 174 0 30 9154 21 107611 13545 2.5 15 6 2 5 28% 10645 88968 13737 35%
c o 27.39 31 172 0 30 9378 21 110421 16071 2.5 15 6 2 5 28% 10659 88968 13737 35%
c - 27.80 31 171 0 31 9692 21 113088 16483 2.5 15 6 2 5 28% 10674 88968 13737 35%
c - 28.50 31 168 0 32 10192 21 118656 18871 2.5 15 6 2 5 28% 10700 88968 13737 35%
c - 29.15 31 166 0 33 10606 21 124313 20943 2.5 15 6 2 5 28% 10722 88968 13737 35%
c - 30.40 31 164 0 34 11293 21 130057 22938 2.5 15 6 2 5 28% 10745 88968 13737 35%
c d 30.95 31 164 0 34 11574 21 132786 25304 2.5 15 6 2 5 28% 10740 88968 13723 35%
c u 31.05 31 164 0 34 11574 21 132786 21480 2.5 15 6 2 5 28% 10750 88968 13723 35%
c v 31.13 31 164 0 34 11574 21 132786 18800 2.5 15 6 2 5 28% 10750 88968 13723 35%
c
c  seconds   switched      rate          size/glue tier1    binary          remaining
c         MB   reductions    conflicts         size  tier2      irredundant
c           level   restarts        redundant    glue   trail          variables
c
c w 31.18 31 164 0 34 11574 21 132786 18788 2.5 15 6 2 5 28% 10750 88968 13723 35%
c x 31.29 31 164 0 34 11574 21 132786 18768 2.5 15 6 2 5 28% 10762 86398 13723 35%
c = 31.72 31 164 0 34 11574 21 132786 18768 2.5 15 6 2 5 28% 10908 86398 13650 35%
c d 31.72 31 164 0 34 11574 21 132786 18634 2.5 15 6 2 5 28% 10754 86398 13650 35%
c t 31.74 31 164 0 34 11574 21 132786 18634 2.5 15 6 2 5 28% 10708 86398 13650 35%
c f 31.75 31 164 0 34 11574 21 132786 18634 2.5 15 6 2 5 28% 10710 86386 13651 35%
c u 31.87 31 164 0 34 11574 21 132786 17676 2.5 15 6 2 5 28% 10713 86386 13651 35%
c v 31.93 31 164 0 34 11574 21 132786 17151 2.5 15 6 2 5 28% 10715 86386 13651 35%
c w 32.02 31 164 0 34 11574 21 132786 16819 2.5 15 6 2 5 28% 10715 86386 13651 35%
c x 32.10 31 164 0 34 11574 21 132786 16818 2.5 15 6 2 5 28% 10731 85323 13651 35%
c = 32.53 31 164 0 34 11574 21 132786 16818 2.5 15 6 2 5 28% 10817 85323 13608 35%
c d 32.54 31 164 0 34 11574 21 132786 16764 2.5 15 6 2 5 28% 10727 85323 13608 35%
c t 32.55 31 164 0 34 11574 21 132786 16764 2.5 15 6 2 5 28% 10720 85323 13608 35%
c - 32.89 31 164 0 35 11756 21 135887 17490 2.5 15 6 2 5 28% 10733 85323 13608 35%
c - 33.57 31 160 0 36 12196 20 141804 20408 2.5 15 6 2 5 28% 10755 85322 13608 35%
c - 34.46 31 159 0 37 12807 21 147804 22925 2.5 16 6 2 5 28% 10773 85321 13608 35%
c - 35.46 31 158 0 38 13461 21 153886 25092 2.5 16 6 2 5 29% 10793 85320 13608 35%
c s 35.95 31 156 0 38 13767 21 157861 28731 2.5 16 6 2 5 29% 10812 84678 13608 35%
c e 36.09 31 156 0 38 13767 21 157861 28731 2.5 16 6 2 5 29% 7436 100468 11495 29%
c 2 36.09 31 156 0 38 13767 21 157861 28731 2.5 16 6 2 5 29% 7432 100468 11495 29%
c
c  seconds   switched      rate          size/glue tier1    binary         remaining
c         MB   reductions    conflicts         size  tier2     irredundant
c           level   restarts        redundant    glue   trail         variables
c
c s 36.13 31 156 0 38 13767 21 157861 28731 2.5 16 6 2 5 29% 7455 98265 11495 29%
c e 36.16 31 156 0 38 13767 21 157861 28731 2.5 16 6 2 5 29% 7316 98778 11427 29%
c ^ 36.16 31 156 0 38 13767 21 157861 28731 2.5 16 6 2 5 29% 7316 98778 11427 29%
c - 36.53 31 155 0 39 14007 21 160051 18853 2.5 16 6 2 5 29% 7320 98778 11427 29%
c o 36.55 31 155 0 39 14021 20 160897 19552 2.5 16 6 2 5 28% 7325 98778 11427 29%
c i 36.79 31 151 0 39 14194 20 164662 22722 2.4 16 6 2 5 28% 7360 98778 11426 29%
c d 36.80 31 151 0 39 14197 20 164738 22342 2.4 16 6 2 5 28% 7333 98767 11411 29%
c d 36.80 31 151 0 39 14197 20 164738 22342 2.4 16 6 2 5 28% 7331 98767 11410 29%
c u 36.88 31 151 0 39 14197 20 164738 19049 2.4 16 6 2 5 28% 7341 98767 11410 29%
c v 36.95 31 151 0 39 14197 20 164738 16925 2.4 16 6 2 5 28% 7345 98767 11410 29%
c w 37.01 31 151 0 39 14197 20 164738 16692 2.4 16 6 2 5 28% 7345 98767 11410 29%
c x 37.07 31 151 0 39 14197 20 164738 16690 2.4 16 6 2 5 28% 7345 98693 11410 29%
c = 37.55 31 151 0 39 14197 20 164738 16690 2.4 16 6 2 5 28% 7429 98539 11353 29%
c d 37.56 31 151 0 39 14197 20 164738 16298 2.4 16 6 2 5 28% 7344 98535 11353 29%
c t 37.57 31 151 0 39 14197 20 164738 16298 2.4 16 6 2 5 28% 7288 98535 11353 29%
c f 37.69 31 151 0 39 14197 20 164738 16298 2.4 16 6 2 5 28% 7295 97646 11393 29%
c u 37.76 31 151 0 39 14197 20 164738 15606 2.4 16 6 2 5 28% 7298 97646 11393 29%
c v 37.80 31 151 0 39 14197 20 164738 15121 2.4 16 6 2 5 28% 7299 97646 11393 29%
c w 37.87 31 151 0 39 14197 20 164738 14792 2.4 16 6 2 5 28% 7299 97646 11393 29%
c - 38.54 31 151 0 40 14313 20 166296 14551 2.4 16 6 2 5 28% 7294 97646 11393 29%
c
c  seconds   switched      rate          size/glue tier1    binary         remaining
c         MB   reductions    conflicts         size  tier2     irredundant
c           level   restarts        redundant    glue   trail         variables
c
c i 38.69 31 150 0 40 14430 20 167444 15602 2.4 16 6 2 5 28% 7303 97646 11390 29%
c i 38.84 31 149 0 40 14532 20 169375 17313 2.4 16 6 2 5 28% 7310 97646 11389 29%
c i 38.84 31 149 0 40 14532 20 169404 17318 2.4 16 6 2 5 28% 7314 97646 11388 29%
c - 39.16 31 148 0 41 14772 19 172621 17679 2.4 16 6 2 5 28% 7315 97646 11388 29%
c - 39.88 31 145 0 42 15376 19 179024 20566 2.4 16 7 2 5 28% 7336 97642 11388 29%
c - 40.54 32 142 0 43 15937 19 185504 22549 2.4 15 7 2 5 27% 7371 97642 11388 29%
c i 40.75 32 141 0 43 16110 19 187641 24472 2.3 15 7 2 5 27% 7381 97641 11387 29%
c - 41.31 32 140 0 44 16499 19 192062 24390 2.3 15 7 2 5 27% 7402 97641 11387 29%
c - 42.05 32 137 0 45 17172 18 198696 26096 2.3 15 7 2 5 27% 7442 97641 11387 29%
c d 42.27 32 136 0 45 17371 18 200516 27447 2.3 15 7 2 5 27% 7388 97582 11354 29%
c d 42.28 32 136 0 45 17371 18 200516 27445 2.3 15 7 2 5 27% 7382 97582 11351 29%
c u 42.37 32 136 0 45 17371 18 200516 23911 2.3 15 7 2 5 27% 7400 97582 11351 29%
c v 42.45 32 136 0 45 17371 18 200516 21623 2.3 15 7 2 5 27% 7402 97582 11351 29%
c w 42.49 32 136 0 45 17371 18 200516 21595 2.3 15 7 2 5 27% 7402 97582 11351 29%
c x 42.56 32 136 0 45 17371 18 200516 21593 2.3 15 7 2 5 27% 7402 97356 11351 29%
c d 42.57 32 136 0 45 17371 18 200516 21561 2.3 15 7 2 5 27% 7390 97356 11345 29%
c t 42.58 32 136 0 45 17371 18 200516 21561 2.3 15 7 2 5 27% 7358 97356 11345 29%
c c 42.63 32 136 0 45 17371 18 200516 21561 2.3 15 7 2 5 27% 7366 97332 11342 29%
c d 42.63 32 136 0 45 17371 18 200516 21552 2.3 15 7 2 5 27% 7360 97332 11342 29%
c u 42.72 32 136 0 45 17371 18 200516 20264 2.3 15 7 2 5 27% 7366 97332 11342 29%
c
c  seconds   switched      rate          size/glue tier1    binary         remaining
c         MB   reductions    conflicts         size  tier2     irredundant
c           level   restarts        redundant    glue   trail         variables
c
c v 42.78 32 136 0 45 17371 18 200516 19293 2.3 15 7 2 5 27% 7366 97332 11342 29%
c w 42.83 32 136 0 45 17371 18 200516 18929 2.3 15 7 2 5 27% 7368 97332 11342 29%
c x 42.92 32 136 0 45 17371 18 200516 18852 2.3 15 7 2 5 27% 7391 92998 11342 29%
c = 43.44 32 136 0 45 17371 18 200516 18852 2.3 15 7 2 5 27% 7575 92934 11243 29%
c d 43.44 32 136 0 45 17371 18 200516 18496 2.3 15 7 2 5 27% 7371 92934 11243 29%
c t 43.45 32 136 0 45 17371 18 200516 18496 2.3 15 7 2 5 27% 7367 92934 11243 29%
c i 43.55 32 135 0 45 17458 18 201700 19535 2.3 15 7 2 5 27% 7371 92934 11242 29%
c - 43.73 32 133 0 46 17647 18 205404 19980 2.3 15 7 2 5 26% 7369 92934 11242 29%
c - 44.07 32 129 0 47 17993 17 212189 22557 2.3 15 7 2 5 25% 7427 92934 11242 29%
c i 44.30 32 127 0 47 18324 17 215886 25822 2.3 15 7 2 5 25% 7457 92934 11241 29%
c i 44.45 32 125 0 47 18518 17 218762 28234 2.3 15 7 2 5 25% 7478 92934 11240 29%
c - 44.47 32 125 0 48 18536 17 219046 24767 2.3 15 7 2 5 25% 7470 92934 11240 29%
c o 44.57 32 124 0 48 18652 17 220901 26264 2.2 15 7 2 5 24% 7482 92934 11240 29%
c i 44.58 32 124 0 48 18667 17 220973 26331 2.2 15 7 2 5 24% 7483 92934 11239 29%
c - 44.87 32 121 0 49 19012 16 225976 26710 2.2 15 7 2 5 24% 7517 92934 11239 29%
c i 44.97 32 119 0 49 19169 16 227855 28392 2.2 15 7 2 5 24% 7530 92933 11238 29%
c - 45.23 32 116 0 50 19540 16 232977 28385 2.2 15 7 2 5 23% 7572 92933 11238 29%
c i 45.49 32 113 0 50 20018 15 237835 32648 2.2 15 7 2 5 22% 7601 92933 11237 29%
c i 45.50 32 113 0 50 20045 15 238278 32999 2.2 15 7 2 5 22% 7609 92933 11235 29%
c i 45.55 32 112 0 50 20096 15 239391 34003 2.2 15 7 2 5 22% 7615 92933 11234 29%
c
c  seconds   switched      rate          size/glue tier1    binary         remaining
c         MB   reductions    conflicts         size  tier2     irredundant
c           level   restarts        redundant    glue   trail         variables
c
c s 45.59 32 112 0 50 20134 15 239970 34520 2.2 15 7 2 5 22% 7618 92447 11234 29%
c e 45.78 33 112 0 50 20134 15 239970 34520 2.2 15 7 2 5 22% 4295 117335 9174 23%
c 2 45.78 33 112 0 50 20134 15 239970 34520 2.2 15 7 2 5 22% 4280 117335 9174 23%
c s 45.85 33 112 0 50 20134 15 239970 34520 2.2 15 7 2 5 22% 4287 113691 9174 23%
c e 45.91 33 112 0 50 20134 15 239970 34520 2.2 15 7 2 5 22% 4122 114658 9105 23%
c ! 45.91 33 112 0 50 20134 15 239970 34520 2.2 15 7 2 5 22% 4122 114658 9105 23%
c - 45.94 33 112 0 51 20148 15 240048 15784 2.2 15 7 2 5 22% 4127 114652 9105 23%
c d 45.94 33 112 0 51 20152 15 240168 15877 2.2 15 7 2 5 22% 4123 114650 9102 23%
c u 46.00 33 112 0 51 20152 15 240168 14122 2.2 15 7 2 5 22% 4127 114650 9102 23%
c v 46.02 33 112 0 51 20152 15 240168 13274 2.2 15 7 2 5 22% 4127 114650 9102 23%
c w 46.03 33 112 0 51 20152 15 240168 13181 2.2 15 7 2 5 22% 4127 114650 9102 23%
c x 46.11 33 112 0 51 20152 15 240168 13148 2.2 15 7 2 5 22% 4133 113756 9102 23%
c = 46.39 33 112 0 51 20152 15 240168 13148 2.2 15 7 2 5 22% 4211 113613 9056 23%
c d 46.39 33 112 0 51 20152 15 240168 12994 2.2 15 7 2 5 22% 4124 113612 9056 23%
c t 46.40 33 112 0 51 20152 15 240168 12994 2.2 15 7 2 5 22% 4075 113612 9056 23%
c f 46.48 33 112 0 51 20152 15 240168 12994 2.2 15 7 2 5 22% 4236 110202 9172 23%
c u 46.54 33 112 0 51 20152 15 240168 12265 2.2 15 7 2 5 22% 4236 110202 9172 23%
c v 46.56 33 112 0 51 20152 15 240168 12110 2.2 15 7 2 5 22% 4236 110202 9172 23%
c w 46.57 33 112 0 51 20152 15 240168 12089 2.2 15 7 2 5 22% 4236 110202 9172 23%
c x 46.64 33 112 0 51 20152 15 240168 12086 2.2 15 7 2 5 22% 4236 110090 9172 23%
c
c  seconds   switched      rate          size/glue tier1    binary         remaining
c         MB   reductions    conflicts         size  tier2     irredundant
c           level   restarts        redundant    glue   trail         variables
c
c = 46.92 33 112 0 51 20152 15 240168 12086 2.2 15 7 2 5 22% 4238 110090 9171 23%
c d 46.92 33 112 0 51 20152 15 240168 12083 2.2 15 7 2 5 22% 4235 110090 9171 23%
c f 47.00 33 112 0 51 20152 15 240168 12083 2.2 15 7 2 5 22% 4307 109085 9218 23%
c i 47.01 33 111 0 51 20156 15 240965 12681 2.2 15 7 2 5 22% 4316 109084 9217 23%
c i 47.01 33 111 0 51 20156 15 240991 12696 2.2 15 7 2 5 22% 4319 109084 9215 23%
c i 47.01 33 111 0 51 20156 15 240995 12696 2.2 15 7 2 5 22% 4322 109084 9213 23%
c i 47.01 33 111 0 51 20156 15 240998 12696 2.2 15 7 2 5 22% 4323 109084 9209 23%
c i 47.01 33 111 0 51 20156 15 241002 12696 2.2 15 7 2 5 22% 4324 109083 9208 23%
c } 47.01 33 111 0 51 20156 15 241004 12696 2.2 15 7 2 5 22% 4324 109083 9199 23%
c 0 47.01 33 111 0 51 20156 15 241004 12696 2.2 15 7 2 5 22% 4324 109083 9199 23%
c
c ---- [ result ] ------------------------------------------------------------
c
s UNSATISFIABLE
c
c ---- [ profiling ] ---------------------------------------------------------
c
c          31.46   66.92 %  search
c          31.46   66.92 %  focused
c          15.05   32.01 %  simplify
c          13.99   29.75 %  probe
c           6.16   13.11 %  sweep
c           5.20   11.07 %  vivify
c           1.38    2.93 %  eliminate
c           1.21    2.58 %  factor
c           0.69    1.48 %  substitute
c           0.46    0.98 %  congruence
c           0.43    0.92 %  preprocess
c           0.31    0.66 %  subsume
c           0.29    0.61 %  reduce
c           0.16    0.35 %  transitive
c           0.11    0.23 %  fastel
c           0.09    0.19 %  backbone
c           0.04    0.09 %  lucky
c           0.03    0.06 %  parse
c =============================================
c          47.01  100.00 %  total
c
c ---- [ statistics ] --------------------------------------------------------
c
c chronological:                         5936                2 %  conflicts
c conflicts:                           241004             5126.24 per second
c congruent:                             4462               11 %  variables
c decisions:                          4178658               17.34 per conflict
c eliminated:                           23295               59 %  variables
c factored:                              3020                8 %  variables
c fast_eliminated:                       8833               38 %  eliminated
c fast_strengthened:                       74                1 %  per strengthened
c fast_subsumed:                           29                0 %  per subsumed
c iterations:                              21                0 %  variables
c propagations:                     197711587          4205399    per second
c reductions:                              51             4726    interval
c reordered:                                7            34429    interval
c restarts:                             20156               12    interval
c strengthened:                         11564                0 %  checks
c substituted:                           9675               25 %  variables
c subsumed:                             17644                0 %  checks
c switched:                                 0                0    interval
c vivified:                            120644               16 %  checks
c
c ---- [ glue usage ] --------------------------------------------------------
c
c focused glue 2 used 138399 clauses 24.03% accumulated 71.23% tier1
c focused glue 3 used  66392 clauses 11.53% accumulated 82.76%
c focused glue 4 used  30516 clauses  5.30% accumulated 88.06%
c focused glue 5 used  18099 clauses  3.14% accumulated 91.20% tier2
c
c ---- [ resources ] ---------------------------------------------------------
c
c maximum-resident-set-size:         34123776 bytes         33 MB
c process-time:                            47s              47.01 seconds
c
c ---- [ shutting down ] -----------------------------------------------------
c
c exit 20
